NAME: ACTUAL_TOURS/amz0457
TYPE: TOUR
COMMENT: RouteID_2fdc7a29-0a17-403d-b88d-5001697d66a4
DIMENSION: 100
TOUR_SECTION
83
84
17
24
13
34
64
77
75
54
6
76
70
82
25
74
99
50
57
81
46
14
58
9
40
32
85
26
37
8
42
72
47
30
16
96
60
73
7
29
100
88
69
22
95
23
21
41
94
56
62
61
79
39
67
93
38
91
18
86
97
65
43
63
45
33
89
12
1
5
15
80
4
27
55
90
52
71
10
49
31
92
78
11
68
59
98
44
2
28
66
3
48
20
87
36
53
19
35
51
-1
EOF
